db/data/955813147864162571343224711173079003.z3.out
-------------------
2500.120058326
